(set-info :source |printed by MathSAT|)
(declare-fun |main::expr_tmp_var_6_uchar| () (_ BitVec 8))

main:
(assert (let ((.def_48 ((_ zero_extend 24) |main::expr_tmp_var_6_uchar|)))(let ((.def_49 (= .def_48 (_ bv7 32)))).def_49)))

main N61:
(assert (let ((.def_76 (= |main::expr_tmp_var_6_uchar| (_ bv0 8)))).def_76))
(assert (let ((.def_78 (= |main::expr_tmp_var_6_uchar| (_ bv1 8)))).def_78))
(assert (let ((.def_48 ((_ zero_extend 24) |main::expr_tmp_var_6_uchar|)))(let ((.def_49 (= .def_48 (_ bv7 32)))).def_49)))
(assert (let ((.def_192 (= |main::expr_tmp_var_6_uchar| (_ bv2 8)))).def_192))
(assert (let ((.def_194 (= |main::expr_tmp_var_6_uchar| (_ bv3 8)))).def_194))
(assert (let ((.def_392 (= |main::expr_tmp_var_6_uchar| (_ bv4 8)))).def_392))
(assert (let ((.def_394 (= |main::expr_tmp_var_6_uchar| (_ bv5 8)))).def_394))

main N391:
(assert false)
(assert (let ((.def_48 ((_ zero_extend 24) |main::expr_tmp_var_6_uchar|)))(let ((.def_49 (= .def_48 (_ bv7 32)))).def_49)))

